num_staff = 20;
work_load = [100, 90, 80, 70, 60, 50, 60, 70, 80, 1, 1, 90, 80, 70, 60, 50, 60, 70, 80, 90];
num_days = 100;
unavailable = [
    {1, 10, 11, 20, 21},
    {1, 3, 10, 11, 20, 21},
    {3},
    {2, 3, 4, 5},
    {2, 3, 4, 5},
    {2, 3, 4, 5},
    {2, 3, 4, 5},
    {2},
    {2, 3, 4, 5, 6, 7, 8, 9, 10, 11},
    {1, 2, 3, 4, 5, 6, 7, 8, 9, 10},
    {},
    {},
    {},
    {},
    {},
    {},
    {},
    {},
    {},
    {}
];
fixed = [
    {},
    {},
    {1},
    {},
    {},
    {},
    {},
    {},
    {},
    {},
    {},
    {},
    {},
    {},
    {},
    {},
    {},
    {},
    {},
    {90, 91, 92, 93, 94, 95, 96, 97, 98, 99, 100}
];
weekend_offset = 2;
adj_days_str = 1;
wed_before_weekend_str = 1;
